CUSTOMERS : 10
VEHICLES : 3
0 437 119 141 108 224 9 339 364 12 157 
3 0 384 139 162 90 225 34 149 449 499 
461 18 0 494 81 43 260 105 107 25 309 
13 476 65 0 65 473 270 461 321 150 76 
108 239 311 404 0 54 7 487 227 270 218 
190 18 246 138 157 0 57 284 313 107 318 
116 498 433 359 225 433 0 321 349 23 31 
276 106 402 63 63 132 344 0 136 156 419 
166 1 137 499 51 98 322 141 0 307 363 
66 119 291 22 149 101 445 212 299 0 44 
100 200 372 218 351 277 254 67 287 256 0 
